verification/formal/sync_fifo_cover/model/design_smt2.smt2
; SMT-LIBv2 description generated by Yosys 0.64+40 (git sha1 90b906c4f, clang++ 18.1.8 -fPIC -O3)
; yosys-smt2-module sync_fifo
(declare-sort |sync_fifo_s| 0)
(declare-fun |sync_fifo_is| (|sync_fifo_s|) Bool)
; yosys-smt2-witness {"offset": 0, "path": ["$auto$async2sync.cc:116:execute$247"], "smtname": 0, "smtoffset": 0, "type": "reg", "width": 1}
(declare-fun |sync_fifo#0| (|sync_fifo_s|) (_ BitVec 1)) ; $auto$async2sync.cc:116:execute$247
; yosys-smt2-register $auto$async2sync.cc:116:execute$247 1
(define-fun |sync_fifo_n $auto$async2sync.cc:116:execute$247| ((state |sync_fifo_s|)) Bool (= ((_ extract 0 0) (|sync_fifo#0| state)) #b1))
; yosys-smt2-witness {"offset": 0, "path": ["$auto$async2sync.cc:116:execute$253"], "smtname": 1, "smtoffset": 0, "type": "reg", "width": 1}
(declare-fun |sync_fifo#1| (|sync_fifo_s|) (_ BitVec 1)) ; $auto$async2sync.cc:116:execute$253
; yosys-smt2-register $auto$async2sync.cc:116:execute$253 1
(define-fun |sync_fifo_n $auto$async2sync.cc:116:execute$253| ((state |sync_fifo_s|)) Bool (= ((_ extract 0 0) (|sync_fifo#1| state)) #b1))
; yosys-smt2-witness {"offset": 0, "path": ["$auto$async2sync.cc:116:execute$259"], "smtname": 2, "smtoffset": 0, "type": "reg", "width": 1}
(declare-fun |sync_fifo#2| (|sync_fifo_s|) (_ BitVec 1)) ; $auto$async2sync.cc:116:execute$259
; yosys-smt2-register $auto$async2sync.cc:116:execute$259 1
(define-fun |sync_fifo_n $auto$async2sync.cc:116:execute$259| ((state |sync_fifo_s|)) Bool (= ((_ extract 0 0) (|sync_fifo#2| state)) #b1))
; yosys-smt2-anyseq sync_fifo#3 64 $auto$setundef.cc:550:execute$309
; yosys-smt2-witness {"offset": 0, "path": ["\\_witness_", "\\anyseq_auto_setundef_cc_550_execute_309"], "smtname": 3, "smtoffset": 0, "type": "seq", "width": 64}
(declare-fun |sync_fifo#3| (|sync_fifo_s|) (_ BitVec 64)) ; \_witness_.anyseq_auto_setundef_cc_550_execute_309
; yosys-smt2-wire _witness_.anyseq_auto_setundef_cc_550_execute_309 64
(define-fun |sync_fifo_n _witness_.anyseq_auto_setundef_cc_550_execute_309| ((state |sync_fifo_s|)) (_ BitVec 64) (|sync_fifo#3| state))
; yosys-smt2-anyinit sync_fifo#4 3 ../../../../src/sync_fifo.v:41.3-58.6
; yosys-smt2-witness {"offset": 0, "path": ["\\_witness_", "\\anyinit_procdff_156"], "smtname": 4, "smtoffset": 0, "type": "init", "width": 3}
(declare-fun |sync_fifo#4| (|sync_fifo_s|) (_ BitVec 3)) ; \_witness_.anyinit_procdff_156
; yosys-smt2-register _witness_.anyinit_procdff_156 3
; yosys-smt2-wire _witness_.anyinit_procdff_156 3
(define-fun |sync_fifo_n _witness_.anyinit_procdff_156| ((state |sync_fifo_s|)) (_ BitVec 3) (|sync_fifo#4| state))
; yosys-smt2-anyinit sync_fifo#5 4 ../../../../src/sync_fifo.v:41.3-58.6
; yosys-smt2-witness {"offset": 0, "path": ["\\_witness_", "\\anyinit_procdff_166"], "smtname": 5, "smtoffset": 0, "type": "init", "width": 4}
(declare-fun |sync_fifo#5| (|sync_fifo_s|) (_ BitVec 4)) ; \_witness_.anyinit_procdff_166
; yosys-smt2-register _witness_.anyinit_procdff_166 4
; yosys-smt2-wire _witness_.anyinit_procdff_166 4
(define-fun |sync_fifo_n _witness_.anyinit_procdff_166| ((state |sync_fifo_s|)) (_ BitVec 4) (|sync_fifo#5| state))
; yosys-smt2-anyinit sync_fifo#6 3 ../../../../src/sync_fifo.v:41.3-58.6
; yosys-smt2-witness {"offset": 0, "path": ["\\_witness_", "\\anyinit_procdff_161"], "smtname": 6, "smtoffset": 0, "type": "init", "width": 3}
(declare-fun |sync_fifo#6| (|sync_fifo_s|) (_ BitVec 3)) ; \_witness_.anyinit_procdff_161
; yosys-smt2-register _witness_.anyinit_procdff_161 3
; yosys-smt2-wire _witness_.anyinit_procdff_161 3
(define-fun |sync_fifo_n _witness_.anyinit_procdff_161| ((state |sync_fifo_s|)) (_ BitVec 3) (|sync_fifo#6| state))
; yosys-smt2-witness {"offset": 0, "path": ["$auto$async2sync.cc:107:execute$255"], "smtname": 7, "smtoffset": 0, "type": "reg", "width": 1}
(declare-fun |sync_fifo#7| (|sync_fifo_s|) (_ BitVec 1)) ; $auto$async2sync.cc:107:execute$255
; yosys-smt2-register $auto$async2sync.cc:107:execute$255 1
(define-fun |sync_fifo_n $auto$async2sync.cc:107:execute$255| ((state |sync_fifo_s|)) Bool (= ((_ extract 0 0) (|sync_fifo#7| state)) #b1))
(declare-fun |sync_fifo#8| (|sync_fifo_s|) Bool) ; \clk
; yosys-smt2-input clk 1
; yosys-smt2-wire clk 1
; yosys-smt2-clock clk posedge
; yosys-smt2-witness {"offset": 0, "path": ["\\clk"], "smtname": "clk", "smtoffset": 0, "type": "posedge", "width": 1}
; yosys-smt2-witness {"offset": 0, "path": ["\\clk"], "smtname": "clk", "smtoffset": 0, "type": "input", "width": 1}
(define-fun |sync_fifo_n clk| ((state |sync_fifo_s|)) Bool (|sync_fifo#8| state))
(declare-fun |sync_fifo#9| (|sync_fifo_s|) (_ BitVec 1)) ; \rst_n
(define-fun |sync_fifo#10| ((state |sync_fifo_s|)) (_ BitVec 4) (ite (= ((_ extract 0 0) (|sync_fifo#9| state)) #b1) (|sync_fifo#5| state) #b0000)) ; \count
; yosys-smt2-wire count 4
(define-fun |sync_fifo_n count| ((state |sync_fifo_s|)) (_ BitVec 4) (|sync_fifo#10| state))
(define-fun |sync_fifo#11| ((state |sync_fifo_s|)) Bool (not (or  (= ((_ extract 0 0) (|sync_fifo#10| state)) #b1) (= ((_ extract 1 1) (|sync_fifo#10| state)) #b1) (= ((_ extract 2 2) (|sync_fifo#10| state)) #b1) (= ((_ extract 3 3) (|sync_fifo#10| state)) #b1)))) ; \empty
; yosys-smt2-output empty 1
; yosys-smt2-wire empty 1
(define-fun |sync_fifo_n empty| ((state |sync_fifo_s|)) Bool (|sync_fifo#11| state))
(define-fun |sync_fifo#12| ((state |sync_fifo_s|)) Bool (= (|sync_fifo#10| state) #b1000)) ; \full
; yosys-smt2-output full 1
; yosys-smt2-wire full 1
(define-fun |sync_fifo_n full| ((state |sync_fifo_s|)) Bool (|sync_fifo#12| state))
; yosys-smt2-anyinit sync_fifo#13 64 ../../../../src/sync_fifo.v:41.3-58.6
; yosys-smt2-witness {"offset": 0, "path": ["\\mem[0]"], "smtname": 13, "smtoffset": 0, "type": "init", "width": 64}
(declare-fun |sync_fifo#13| (|sync_fifo_s|) (_ BitVec 64)) ; \mem[0]
; yosys-smt2-register mem[0] 64
; yosys-smt2-wire mem[0] 64
(define-fun |sync_fifo_n mem[0]| ((state |sync_fifo_s|)) (_ BitVec 64) (|sync_fifo#13| state))
; yosys-smt2-anyinit sync_fifo#14 64 ../../../../src/sync_fifo.v:41.3-58.6
; yosys-smt2-witness {"offset": 0, "path": ["\\mem[1]"], "smtname": 14, "smtoffset": 0, "type": "init", "width": 64}
(declare-fun |sync_fifo#14| (|sync_fifo_s|) (_ BitVec 64)) ; \mem[1]
; yosys-smt2-register mem[1] 64
; yosys-smt2-wire mem[1] 64
(define-fun |sync_fifo_n mem[1]| ((state |sync_fifo_s|)) (_ BitVec 64) (|sync_fifo#14| state))
; yosys-smt2-anyinit sync_fifo#15 64 ../../../../src/sync_fifo.v:41.3-58.6
; yosys-smt2-witness {"offset": 0, "path": ["\\mem[2]"], "smtname": 15, "smtoffset": 0, "type": "init", "width": 64}
(declare-fun |sync_fifo#15| (|sync_fifo_s|) (_ BitVec 64)) ; \mem[2]
; yosys-smt2-register mem[2] 64
; yosys-smt2-wire mem[2] 64
(define-fun |sync_fifo_n mem[2]| ((state |sync_fifo_s|)) (_ BitVec 64) (|sync_fifo#15| state))
; yosys-smt2-anyinit sync_fifo#16 64 ../../../../src/sync_fifo.v:41.3-58.6
; yosys-smt2-witness {"offset": 0, "path": ["\\mem[3]"], "smtname": 16, "smtoffset": 0, "type": "init", "width": 64}
(declare-fun |sync_fifo#16| (|sync_fifo_s|) (_ BitVec 64)) ; \mem[3]
; yosys-smt2-register mem[3] 64
; yosys-smt2-wire mem[3] 64
(define-fun |sync_fifo_n mem[3]| ((state |sync_fifo_s|)) (_ BitVec 64) (|sync_fifo#16| state))
; yosys-smt2-anyinit sync_fifo#17 64 ../../../../src/sync_fifo.v:41.3-58.6
; yosys-smt2-witness {"offset": 0, "path": ["\\mem[4]"], "smtname": 17, "smtoffset": 0, "type": "init", "width": 64}
(declare-fun |sync_fifo#17| (|sync_fifo_s|) (_ BitVec 64)) ; \mem[4]
; yosys-smt2-register mem[4] 64
; yosys-smt2-wire mem[4] 64
(define-fun |sync_fifo_n mem[4]| ((state |sync_fifo_s|)) (_ BitVec 64) (|sync_fifo#17| state))
; yosys-smt2-anyinit sync_fifo#18 64 ../../../../src/sync_fifo.v:41.3-58.6
; yosys-smt2-witness {"offset": 0, "path": ["\\mem[5]"], "smtname": 18, "smtoffset": 0, "type": "init", "width": 64}
(declare-fun |sync_fifo#18| (|sync_fifo_s|) (_ BitVec 64)) ; \mem[5]
; yosys-smt2-register mem[5] 64
; yosys-smt2-wire mem[5] 64
(define-fun |sync_fifo_n mem[5]| ((state |sync_fifo_s|)) (_ BitVec 64) (|sync_fifo#18| state))
; yosys-smt2-anyinit sync_fifo#19 64 ../../../../src/sync_fifo.v:41.3-58.6
; yosys-smt2-witness {"offset": 0, "path": ["\\mem[6]"], "smtname": 19, "smtoffset": 0, "type": "init", "width": 64}
(declare-fun |sync_fifo#19| (|sync_fifo_s|) (_ BitVec 64)) ; \mem[6]
; yosys-smt2-register mem[6] 64
; yosys-smt2-wire mem[6] 64
(define-fun |sync_fifo_n mem[6]| ((state |sync_fifo_s|)) (_ BitVec 64) (|sync_fifo#19| state))
; yosys-smt2-anyinit sync_fifo#20 64 ../../../../src/sync_fifo.v:41.3-58.6
; yosys-smt2-witness {"offset": 0, "path": ["\\mem[7]"], "smtname": 20, "smtoffset": 0, "type": "init", "width": 64}
(declare-fun |sync_fifo#20| (|sync_fifo_s|) (_ BitVec 64)) ; \mem[7]
; yosys-smt2-register mem[7] 64
; yosys-smt2-wire mem[7] 64
(define-fun |sync_fifo_n mem[7]| ((state |sync_fifo_s|)) (_ BitVec 64) (|sync_fifo#20| state))
(declare-fun |sync_fifo#21| (|sync_fifo_s|) Bool) ; \rd_en
(define-fun |sync_fifo#22| ((state |sync_fifo_s|)) Bool (not (or  (|sync_fifo#11| state) false))) ; $logic_not$../../../../src/sync_fifo.v:39$7_Y
(define-fun |sync_fifo#23| ((state |sync_fifo_s|)) Bool (and (or  (|sync_fifo#21| state) false) (or  (|sync_fifo#22| state) false))) ; \rd
; yosys-smt2-wire rd 1
(define-fun |sync_fifo_n rd| ((state |sync_fifo_s|)) Bool (|sync_fifo#23| state))
(define-fun |sync_fifo#24| ((state |sync_fifo_s|)) (_ BitVec 3) (ite (= ((_ extract 0 0) (|sync_fifo#9| state)) #b1) (|sync_fifo#6| state) #b000)) ; \rd_ptr
(define-fun |sync_fifo#25| ((state |sync_fifo_s|)) Bool (= (|sync_fifo#24| state) #b111)) ; $procmux$51_CMP
(define-fun |sync_fifo#26| ((state |sync_fifo_s|)) Bool (= (|sync_fifo#24| state) #b110)) ; $procmux$52_CMP
(define-fun |sync_fifo#27| ((state |sync_fifo_s|)) Bool (= (|sync_fifo#24| state) #b101)) ; $procmux$53_CMP
(define-fun |sync_fifo#28| ((state |sync_fifo_s|)) Bool (= (|sync_fifo#24| state) #b100)) ; $procmux$54_CMP
(define-fun |sync_fifo#29| ((state |sync_fifo_s|)) Bool (= (|sync_fifo#24| state) #b011)) ; $procmux$55_CMP
(define-fun |sync_fifo#30| ((state |sync_fifo_s|)) Bool (= (|sync_fifo#24| state) #b010)) ; $procmux$56_CMP
(define-fun |sync_fifo#31| ((state |sync_fifo_s|)) Bool (= (|sync_fifo#24| state) #b001)) ; $procmux$57_CMP
(define-fun |sync_fifo#32| ((state |sync_fifo_s|)) Bool (not (or  (= ((_ extract 0 0) (|sync_fifo#24| state)) #b1) (= ((_ extract 1 1) (|sync_fifo#24| state)) #b1) (= ((_ extract 2 2) (|sync_fifo#24| state)) #b1)))) ; $procmux$58_CMP
(define-fun |sync_fifo#33| ((state |sync_fifo_s|)) (_ BitVec 64) (ite (|sync_fifo#32| state) (|sync_fifo#13| state) (ite (|sync_fifo#31| state) (|sync_fifo#14| state) (ite (|sync_fifo#30| state) (|sync_fifo#15| state) (ite (|sync_fifo#29| state) (|sync_fifo#16| state) (ite (|sync_fifo#28| state) (|sync_fifo#17| state) (ite (|sync_fifo#27| state) (|sync_fifo#18| state) (ite (|sync_fifo#26| state) (|sync_fifo#19| state) (ite (|sync_fifo#25| state) (|sync_fifo#20| state) (|sync_fifo#3| state)))))))))) ; \rd_data
; yosys-smt2-output rd_data 64
; yosys-smt2-wire rd_data 64
(define-fun |sync_fifo_n rd_data| ((state |sync_fifo_s|)) (_ BitVec 64) (|sync_fifo#33| state))
; yosys-smt2-input rd_en 1
; yosys-smt2-wire rd_en 1
; yosys-smt2-witness {"offset": 0, "path": ["\\rd_en"], "smtname": "rd_en", "smtoffset": 0, "type": "input", "width": 1}
(define-fun |sync_fifo_n rd_en| ((state |sync_fifo_s|)) Bool (|sync_fifo#21| state))
; yosys-smt2-wire rd_ptr 3
(define-fun |sync_fifo_n rd_ptr| ((state |sync_fifo_s|)) (_ BitVec 3) (|sync_fifo#24| state))
; yosys-smt2-input rst_n 1
; yosys-smt2-wire rst_n 1
; yosys-smt2-witness {"offset": 0, "path": ["\\rst_n"], "smtname": "rst_n", "smtoffset": 0, "type": "input", "width": 1}
(define-fun |sync_fifo_n rst_n| ((state |sync_fifo_s|)) Bool (= ((_ extract 0 0) (|sync_fifo#9| state)) #b1))
(declare-fun |sync_fifo#34| (|sync_fifo_s|) Bool) ; \wr_en
(define-fun |sync_fifo#35| ((state |sync_fifo_s|)) Bool (not (or  (|sync_fifo#12| state) false))) ; $logic_not$../../../../src/sync_fifo.v:38$5_Y
(define-fun |sync_fifo#36| ((state |sync_fifo_s|)) Bool (and (or  (|sync_fifo#34| state) false) (or  (|sync_fifo#35| state) false))) ; \wr
; yosys-smt2-wire wr 1
(define-fun |sync_fifo_n wr| ((state |sync_fifo_s|)) Bool (|sync_fifo#36| state))
(declare-fun |sync_fifo#37| (|sync_fifo_s|) (_ BitVec 64)) ; \wr_data
; yosys-smt2-input wr_data 64
; yosys-smt2-wire wr_data 64
; yosys-smt2-witness {"offset": 0, "path": ["\\wr_data"], "smtname": "wr_data", "smtoffset": 0, "type": "input", "width": 64}
(define-fun |sync_fifo_n wr_data| ((state |sync_fifo_s|)) (_ BitVec 64) (|sync_fifo#37| state))
; yosys-smt2-input wr_en 1
; yosys-smt2-wire wr_en 1
; yosys-smt2-witness {"offset": 0, "path": ["\\wr_en"], "smtname": "wr_en", "smtoffset": 0, "type": "input", "width": 1}
(define-fun |sync_fifo_n wr_en| ((state |sync_fifo_s|)) Bool (|sync_fifo#34| state))
(define-fun |sync_fifo#38| ((state |sync_fifo_s|)) (_ BitVec 3) (ite (= ((_ extract 0 0) (|sync_fifo#9| state)) #b1) (|sync_fifo#4| state) #b000)) ; \wr_ptr
; yosys-smt2-wire wr_ptr 3
(define-fun |sync_fifo_n wr_ptr| ((state |sync_fifo_s|)) (_ BitVec 3) (|sync_fifo#38| state))
(define-fun |sync_fifo#39| ((state |sync_fifo_s|)) (_ BitVec 1) (bvnot (ite (|sync_fifo#8| state) #b1 #b0))) ; $auto$rtlil.cc:3255:Not$312
; yosys-smt2-assume 0 $auto$formalff.cc:987:execute$313
(define-fun |sync_fifo_u 0| ((state |sync_fifo_s|)) Bool (or (= ((_ extract 0 0) (|sync_fifo#39| state)) #b1) (not true))) ; $auto$formalff.cc:987:execute$313
(define-fun |sync_fifo#40| ((state |sync_fifo_s|)) Bool (bvule (|sync_fifo#10| state) #b1000)) ; $le$../../../../src/sync_fifo.v:63$45_Y
(define-fun |sync_fifo#41| ((state |sync_fifo_s|)) Bool (|sync_fifo_is| state)) ; $auto$rtlil.cc:3302:And$238
; yosys-smt2-assume 1 _witness_.assume_assume_____________src_sync_fifo_v_63_44 ../../../../src/sync_fifo.v:63.5-63.32
(define-fun |sync_fifo_u 1| ((state |sync_fifo_s|)) Bool (or (|sync_fifo#40| state) (not (|sync_fifo#41| state)))) ; _witness_.assume_assume_____________src_sync_fifo_v_63_44
(define-fun |sync_fifo#42| ((state |sync_fifo_s|)) Bool (bvult (concat #b0 (|sync_fifo#38| state)) #b1000)) ; $lt$../../../../src/sync_fifo.v:64$47_Y
; yosys-smt2-assume 2 _witness_.assume_assume_____________src_sync_fifo_v_64_46 ../../../../src/sync_fifo.v:64.5-64.28
(define-fun |sync_fifo_u 2| ((state |sync_fifo_s|)) Bool (or (|sync_fifo#42| state) (not (|sync_fifo#41| state)))) ; _witness_.assume_assume_____________src_sync_fifo_v_64_46
(define-fun |sync_fifo#43| ((state |sync_fifo_s|)) Bool (bvult (concat #b0 (|sync_fifo#24| state)) #b1000)) ; $lt$../../../../src/sync_fifo.v:65$49_Y
; yosys-smt2-assume 3 _witness_.assume_assume_____________src_sync_fifo_v_65_48 ../../../../src/sync_fifo.v:65.5-65.28
(define-fun |sync_fifo_u 3| ((state |sync_fifo_s|)) Bool (or (|sync_fifo#43| state) (not (|sync_fifo#41| state)))) ; _witness_.assume_assume_____________src_sync_fifo_v_65_48
; yosys-smt2-cover 0 _witness_.cover_cover_____________src_sync_fifo_v_79_33 ../../../../src/sync_fifo.v:79.7-79.19
(define-fun |sync_fifo_c 0| ((state |sync_fifo_s|)) Bool (and (= ((_ extract 0 0) (|sync_fifo#0| state)) #b1) (= ((_ extract 0 0) (|sync_fifo#7| state)) #b1))) ; _witness_.cover_cover_____________src_sync_fifo_v_79_33
; yosys-smt2-cover 1 _witness_.cover_cover_____________src_sync_fifo_v_80_34 ../../../../src/sync_fifo.v:80.7-80.23
(define-fun |sync_fifo_c 1| ((state |sync_fifo_s|)) Bool (and (= ((_ extract 0 0) (|sync_fifo#1| state)) #b1) (= ((_ extract 0 0) (|sync_fifo#7| state)) #b1))) ; _witness_.cover_cover_____________src_sync_fifo_v_80_34
; yosys-smt2-cover 2 _witness_.cover_cover_____________src_sync_fifo_v_81_36 ../../../../src/sync_fifo.v:81.7-81.69
(define-fun |sync_fifo_c 2| ((state |sync_fifo_s|)) Bool (and (= ((_ extract 0 0) (|sync_fifo#2| state)) #b1) (= ((_ extract 0 0) (|sync_fifo#7| state)) #b1))) ; _witness_.cover_cover_____________src_sync_fifo_v_81_36
(define-fun |sync_fifo#44| ((state |sync_fifo_s|)) Bool (= (|sync_fifo#38| state) #b111)) ; $procmux$77_CMP
(define-fun |sync_fifo#45| ((state |sync_fifo_s|)) (_ BitVec 64) (ite (|sync_fifo#44| state) (|sync_fifo#37| state) (|sync_fifo#20| state))) ; $procmux$76_Y
(define-fun |sync_fifo#46| ((state |sync_fifo_s|)) (_ BitVec 64) (ite (|sync_fifo#36| state) (|sync_fifo#45| state) (|sync_fifo#20| state))) ; $0\mem[7][63:0]
(define-fun |sync_fifo#47| ((state |sync_fifo_s|)) (_ BitVec 64) (ite (= ((_ extract 0 0) (|sync_fifo#9| state)) #b1) (|sync_fifo#46| state) (|sync_fifo#20| state))) ; $auto$rtlil.cc:3390:Mux$221
(define-fun |sync_fifo#48| ((state |sync_fifo_s|)) Bool (= (|sync_fifo#38| state) #b110)) ; $procmux$83_CMP
(define-fun |sync_fifo#49| ((state |sync_fifo_s|)) (_ BitVec 64) (ite (|sync_fifo#48| state) (|sync_fifo#37| state) (|sync_fifo#19| state))) ; $procmux$82_Y
(define-fun |sync_fifo#50| ((state |sync_fifo_s|)) (_ BitVec 64) (ite (|sync_fifo#36| state) (|sync_fifo#49| state) (|sync_fifo#19| state))) ; $0\mem[6][63:0]
(define-fun |sync_fifo#51| ((state |sync_fifo_s|)) (_ BitVec 64) (ite (= ((_ extract 0 0) (|sync_fifo#9| state)) #b1) (|sync_fifo#50| state) (|sync_fifo#19| state))) ; $auto$rtlil.cc:3390:Mux$214
(define-fun |sync_fifo#52| ((state |sync_fifo_s|)) Bool (= (|sync_fifo#38| state) #b101)) ; $procmux$90_CMP
(define-fun |sync_fifo#53| ((state |sync_fifo_s|)) (_ BitVec 64) (ite (|sync_fifo#52| state) (|sync_fifo#37| state) (|sync_fifo#18| state))) ; $procmux$89_Y
(define-fun |sync_fifo#54| ((state |sync_fifo_s|)) (_ BitVec 64) (ite (|sync_fifo#36| state) (|sync_fifo#53| state) (|sync_fifo#18| state))) ; $0\mem[5][63:0]
(define-fun |sync_fifo#55| ((state |sync_fifo_s|)) (_ BitVec 64) (ite (= ((_ extract 0 0) (|sync_fifo#9| state)) #b1) (|sync_fifo#54| state) (|sync_fifo#18| state))) ; $auto$rtlil.cc:3390:Mux$207
(define-fun |sync_fifo#56| ((state |sync_fifo_s|)) Bool (= (|sync_fifo#38| state) #b100)) ; $procmux$98_CMP
(define-fun |sync_fifo#57| ((state |sync_fifo_s|)) (_ BitVec 64) (ite (|sync_fifo#56| state) (|sync_fifo#37| state) (|sync_fifo#17| state))) ; $procmux$97_Y
(define-fun |sync_fifo#58| ((state |sync_fifo_s|)) (_ BitVec 64) (ite (|sync_fifo#36| state) (|sync_fifo#57| state) (|sync_fifo#17| state))) ; $0\mem[4][63:0]
(define-fun |sync_fifo#59| ((state |sync_fifo_s|)) (_ BitVec 64) (ite (= ((_ extract 0 0) (|sync_fifo#9| state)) #b1) (|sync_fifo#58| state) (|sync_fifo#17| state))) ; $auto$rtlil.cc:3390:Mux$200
(define-fun |sync_fifo#60| ((state |sync_fifo_s|)) Bool (= (|sync_fifo#38| state) #b011)) ; $procmux$107_CMP
(define-fun |sync_fifo#61| ((state |sync_fifo_s|)) (_ BitVec 64) (ite (|sync_fifo#60| state) (|sync_fifo#37| state) (|sync_fifo#16| state))) ; $procmux$106_Y
(define-fun |sync_fifo#62| ((state |sync_fifo_s|)) (_ BitVec 64) (ite (|sync_fifo#36| state) (|sync_fifo#61| state) (|sync_fifo#16| state))) ; $0\mem[3][63:0]
(define-fun |sync_fifo#63| ((state |sync_fifo_s|)) (_ BitVec 64) (ite (= ((_ extract 0 0) (|sync_fifo#9| state)) #b1) (|sync_fifo#62| state) (|sync_fifo#16| state))) ; $auto$rtlil.cc:3390:Mux$193
(define-fun |sync_fifo#64| ((state |sync_fifo_s|)) Bool (= (|sync_fifo#38| state) #b010)) ; $procmux$117_CMP
(define-fun |sync_fifo#65| ((state |sync_fifo_s|)) (_ BitVec 64) (ite (|sync_fifo#64| state) (|sync_fifo#37| state) (|sync_fifo#15| state))) ; $procmux$116_Y
(define-fun |sync_fifo#66| ((state |sync_fifo_s|)) (_ BitVec 64) (ite (|sync_fifo#36| state) (|sync_fifo#65| state) (|sync_fifo#15| state))) ; $0\mem[2][63:0]
(define-fun |sync_fifo#67| ((state |sync_fifo_s|)) (_ BitVec 64) (ite (= ((_ extract 0 0) (|sync_fifo#9| state)) #b1) (|sync_fifo#66| state) (|sync_fifo#15| state))) ; $auto$rtlil.cc:3390:Mux$186
(define-fun |sync_fifo#68| ((state |sync_fifo_s|)) Bool (= (|sync_fifo#38| state) #b001)) ; $procmux$128_CMP
(define-fun |sync_fifo#69| ((state |sync_fifo_s|)) (_ BitVec 64) (ite (|sync_fifo#68| state) (|sync_fifo#37| state) (|sync_fifo#14| state))) ; $procmux$127_Y
(define-fun |sync_fifo#70| ((state |sync_fifo_s|)) (_ BitVec 64) (ite (|sync_fifo#36| state) (|sync_fifo#69| state) (|sync_fifo#14| state))) ; $0\mem[1][63:0]
(define-fun |sync_fifo#71| ((state |sync_fifo_s|)) (_ BitVec 64) (ite (= ((_ extract 0 0) (|sync_fifo#9| state)) #b1) (|sync_fifo#70| state) (|sync_fifo#14| state))) ; $auto$rtlil.cc:3390:Mux$179
(define-fun |sync_fifo#72| ((state |sync_fifo_s|)) Bool (not (or  (= ((_ extract 0 0) (|sync_fifo#38| state)) #b1) (= ((_ extract 1 1) (|sync_fifo#38| state)) #b1) (= ((_ extract 2 2) (|sync_fifo#38| state)) #b1)))) ; $procmux$140_CMP
(define-fun |sync_fifo#73| ((state |sync_fifo_s|)) (_ BitVec 64) (ite (|sync_fifo#72| state) (|sync_fifo#37| state) (|sync_fifo#13| state))) ; $procmux$139_Y
(define-fun |sync_fifo#74| ((state |sync_fifo_s|)) (_ BitVec 64) (ite (|sync_fifo#36| state) (|sync_fifo#73| state) (|sync_fifo#13| state))) ; $0\mem[0][63:0]
(define-fun |sync_fifo#75| ((state |sync_fifo_s|)) (_ BitVec 64) (ite (= ((_ extract 0 0) (|sync_fifo#9| state)) #b1) (|sync_fifo#74| state) (|sync_fifo#13| state))) ; $auto$rtlil.cc:3390:Mux$172
(define-fun |sync_fifo#76| ((state |sync_fifo_s|)) Bool (= (|sync_fifo#9| state) #b1)) ; $eqx$../../../../src/sync_fifo.v:70$26_Y
(define-fun |sync_fifo#77| ((state |sync_fifo_s|)) (_ BitVec 1) (ite (|sync_fifo#76| state) #b1 #b0)) ; $assert$../../../../src/sync_fifo.v:71$27_EN
(define-fun |sync_fifo#78| ((state |sync_fifo_s|)) (_ BitVec 3) (bvadd (|sync_fifo#24| state) #b001)) ; $add$../../../../src/sync_fifo.v:56$24_Y
(define-fun |sync_fifo#79| ((state |sync_fifo_s|)) (_ BitVec 3) (ite (|sync_fifo#23| state) (|sync_fifo#78| state) (|sync_fifo#24| state))) ; $0\rd_ptr[2:0]
(define-fun |sync_fifo#80| ((state |sync_fifo_s|)) (_ BitVec 3) (ite (= ((_ extract 0 0) (|sync_fifo#9| state)) #b1) (|sync_fifo#79| state) #b000)) ; $auto$rtlil.cc:3390:Mux$304
(define-fun |sync_fifo#81| ((state |sync_fifo_s|)) (_ BitVec 4) (bvsub (|sync_fifo#10| state) #b0001)) ; $sub$../../../../src/sync_fifo.v:52$22_Y
(define-fun |sync_fifo#82| ((state |sync_fifo_s|)) Bool (not (or  (|sync_fifo#36| state) false))) ; $logic_not$../../../../src/sync_fifo.v:51$20_Y
(define-fun |sync_fifo#83| ((state |sync_fifo_s|)) Bool (and (or  (|sync_fifo#23| state) false) (or  (|sync_fifo#82| state) false))) ; $logic_and$../../../../src/sync_fifo.v:51$21_Y
(define-fun |sync_fifo#84| ((state |sync_fifo_s|)) (_ BitVec 4) (ite (|sync_fifo#83| state) (|sync_fifo#81| state) (|sync_fifo#10| state))) ; $procmux$143_Y
(define-fun |sync_fifo#85| ((state |sync_fifo_s|)) (_ BitVec 4) (bvadd (|sync_fifo#10| state) #b0001)) ; $add$../../../../src/sync_fifo.v:50$19_Y
(define-fun |sync_fifo#86| ((state |sync_fifo_s|)) Bool (not (or  (|sync_fifo#23| state) false))) ; $logic_not$../../../../src/sync_fifo.v:49$17_Y
(define-fun |sync_fifo#87| ((state |sync_fifo_s|)) Bool (and (or  (|sync_fifo#36| state) false) (or  (|sync_fifo#86| state) false))) ; $logic_and$../../../../src/sync_fifo.v:49$18_Y
(define-fun |sync_fifo#88| ((state |sync_fifo_s|)) (_ BitVec 4) (ite (|sync_fifo#87| state) (|sync_fifo#85| state) (|sync_fifo#84| state))) ; $0\count[3:0]
(define-fun |sync_fifo#89| ((state |sync_fifo_s|)) (_ BitVec 4) (ite (= ((_ extract 0 0) (|sync_fifo#9| state)) #b1) (|sync_fifo#88| state) #b0000)) ; $auto$rtlil.cc:3390:Mux$306
(define-fun |sync_fifo#90| ((state |sync_fifo_s|)) (_ BitVec 3) (bvadd (|sync_fifo#38| state) #b001)) ; $add$../../../../src/sync_fifo.v:54$23_Y
(define-fun |sync_fifo#91| ((state |sync_fifo_s|)) (_ BitVec 3) (ite (|sync_fifo#36| state) (|sync_fifo#90| state) (|sync_fifo#38| state))) ; $0\wr_ptr[2:0]
(define-fun |sync_fifo#92| ((state |sync_fifo_s|)) (_ BitVec 3) (ite (= ((_ extract 0 0) (|sync_fifo#9| state)) #b1) (|sync_fifo#91| state) #b000)) ; $auto$rtlil.cc:3390:Mux$302
(define-fun |sync_fifo#93| ((state |sync_fifo_s|)) Bool (bvugt (|sync_fifo#10| state) #b0000)) ; $gt$../../../../src/sync_fifo.v:81$37_Y
(define-fun |sync_fifo#94| ((state |sync_fifo_s|)) Bool (bvult (|sync_fifo#10| state) #b1000)) ; $lt$../../../../src/sync_fifo.v:81$38_Y
(define-fun |sync_fifo#95| ((state |sync_fifo_s|)) Bool (and (or  (|sync_fifo#93| state) false) (or  (|sync_fifo#94| state) false))) ; $logic_and$../../../../src/sync_fifo.v:81$39_Y
(define-fun |sync_fifo#96| ((state |sync_fifo_s|)) Bool (and (or  (|sync_fifo#36| state) false) (or  (|sync_fifo#23| state) false))) ; $logic_and$../../../../src/sync_fifo.v:80$35_Y
(define-fun |sync_fifo_a| ((state |sync_fifo_s|)) Bool true)
(define-fun |sync_fifo_u| ((state |sync_fifo_s|)) Bool (and
  (|sync_fifo_u 0| state)
  (|sync_fifo_u 1| state)
  (|sync_fifo_u 2| state)
  (|sync_fifo_u 3| state)
))
(define-fun |sync_fifo_i| ((state |sync_fifo_s|)) Bool (and
  (= (= ((_ extract 0 0) (|sync_fifo#0| state)) #b1) true) ; $auto$async2sync.cc:116:execute$247
  (= (= ((_ extract 0 0) (|sync_fifo#1| state)) #b1) true) ; $auto$async2sync.cc:116:execute$253
  (= (= ((_ extract 0 0) (|sync_fifo#2| state)) #b1) true) ; $auto$async2sync.cc:116:execute$259
  (= (= ((_ extract 0 0) (|sync_fifo#7| state)) #b1) false) ; $auto$async2sync.cc:107:execute$255
))
(define-fun |sync_fifo_h| ((state |sync_fifo_s|)) Bool true)
(define-fun |sync_fifo_t| ((state |sync_fifo_s|) (next_state |sync_fifo_s|)) Bool (and
  (= (|sync_fifo#47| state) (|sync_fifo#20| next_state)) ; $procdff$222 \mem[7]
  (= (|sync_fifo#51| state) (|sync_fifo#19| next_state)) ; $procdff$215 \mem[6]
  (= (|sync_fifo#55| state) (|sync_fifo#18| next_state)) ; $procdff$208 \mem[5]
  (= (|sync_fifo#59| state) (|sync_fifo#17| next_state)) ; $procdff$201 \mem[4]
  (= (|sync_fifo#63| state) (|sync_fifo#16| next_state)) ; $procdff$194 \mem[3]
  (= (|sync_fifo#67| state) (|sync_fifo#15| next_state)) ; $procdff$187 \mem[2]
  (= (|sync_fifo#71| state) (|sync_fifo#14| next_state)) ; $procdff$180 \mem[1]
  (= (|sync_fifo#75| state) (|sync_fifo#13| next_state)) ; $procdff$173 \mem[0]
  (= (|sync_fifo#77| state) (|sync_fifo#7| next_state)) ; $auto$async2sync.cc:110:execute$257 $auto$async2sync.cc:107:execute$255
  (= (|sync_fifo#80| state) (|sync_fifo#6| next_state)) ; $procdff$161 \_witness_.anyinit_procdff_161
  (= (|sync_fifo#89| state) (|sync_fifo#5| next_state)) ; $procdff$166 \_witness_.anyinit_procdff_166
  (= (|sync_fifo#92| state) (|sync_fifo#4| next_state)) ; $procdff$156 \_witness_.anyinit_procdff_156
  (= (ite (|sync_fifo#95| state) #b1 #b0) (|sync_fifo#2| next_state)) ; $auto$async2sync.cc:118:execute$260 $auto$async2sync.cc:116:execute$259
  (= (ite (|sync_fifo#96| state) #b1 #b0) (|sync_fifo#1| next_state)) ; $auto$async2sync.cc:118:execute$254 $auto$async2sync.cc:116:execute$253
  (= (ite (|sync_fifo#12| state) #b1 #b0) (|sync_fifo#0| next_state)) ; $auto$async2sync.cc:118:execute$248 $auto$async2sync.cc:116:execute$247
)) ; end of module sync_fifo
; yosys-smt2-topmod sync_fifo
; end of yosys output
